\ LP format - for model browsing. Use MPS format to capture full model detail.
Minimize
  0.589865121120506 e[(0,_0),(1,_0)] - 2.778933909685156 e[(0,_0),(0,_1)]
   + 1.046604922876515 e[(0,_1),(1,_1)]
   + 0.5871297875440361 e[(0,_1),(0,_2)]
   + 0.5260341468446202 e[(0,_2),(1,_2)]
   + 0.1406267549471185 e[(0,_2),(0,_3)]
   - 0.5101915981005832 e[(0,_3),(1,_3)]
   + 1.333752861500147 e[(1,_0),(2,_0)]
   - 0.00164495244009754 e[(1,_0),(1,_1)]
   - 0.1634819154638884 e[(1,_1),(2,_1)]
   + 1.341661408849862 e[(1,_1),(1,_2)]
   + 0.9639985032590691 e[(1,_2),(2,_2)]
   - 1.013758729346894 e[(1,_2),(1,_3)]
   + 0.9016237024832534 e[(1,_3),(2,_3)]
   - 0.6392538192984256 e[(2,_0),(2,_1)]
   + 2.144330442112183 e[(2,_1),(2,_2)]
   + 2.613424286534299 e[(2,_2),(2,_3)]
Subject To
Bounds
Binaries
 e[(0,_0),(1,_0)] e[(0,_0),(0,_1)] e[(0,_1),(1,_1)] e[(0,_1),(0,_2)]
 e[(0,_2),(1,_2)] e[(0,_2),(0,_3)] e[(0,_3),(1,_3)] e[(1,_0),(2,_0)]
 e[(1,_0),(1,_1)] e[(1,_1),(2,_1)] e[(1,_1),(1,_2)] e[(1,_2),(2,_2)]
 e[(1,_2),(1,_3)] e[(1,_3),(2,_3)] e[(2,_0),(2,_1)] e[(2,_1),(2,_2)]
 e[(2,_2),(2,_3)]
End
